<number of tasks>
50

<cycle time>
1000

<order strength>
0.597


<task times>
1 207
2 109
3 58
4 86
5 187
6 124
7 230
8 41
9 55
10 105
11 136
12 84
13 93
14 173
15 230
16 204
17 68
18 256
19 211
20 83
21 194
22 112
23 199
24 37
25 126
26 43
27 208
28 107
29 139
30 107
31 162
32 89
33 85
34 86
35 97
36 72
37 41
38 279
39 24
40 163
41 351
42 28
43 114
44 297
45 108
46 280
47 105
48 90
49 257
50 196

<precedence relations>
1,3
2,4
2,5
2,6
3,9
4,7
4,9
4,10
4,12
4,13
5,8
5,11
5,12
5,13
6,8
6,9
6,10
6,13
7,14
8,15
8,16
9,24
10,16
10,17
11,16
11,17
12,16
12,17
13,16
13,17
14,19
15,20
16,18
16,21
16,22
16,23
16,24
17,21
17,22
17,23
17,24
18,25
19,26
20,27
21,27
21,28
22,27
22,28
23,27
23,28
24,27
24,28
25,31
26,30
27,29
27,31
28,31
29,32
30,33
31,34
31,35
31,36
31,37
31,38
32,43
33,40
34,41
35,39
35,42
35,43
35,46
36,43
36,46
36,47
37,43
37,46
37,47
39,44
40,46
41,46
42,45
43,50
44,47
45,47
46,48
46,49
46,50

<end>
